; benchmark generated from python API
(set-info :status unknown)
(declare-fun x_months () Int)
(declare-fun x_beta () Int)
(declare-fun y_months () Int)
(declare-fun y_beta () Int)
(assert
 (<= (- 1200) x_months))
(assert
 (>= 1199 x_months))
(assert
 (>= x_beta 0))
(assert
 (let ((?x3165 (+ x_months 24003)))
 (let ((?x1128 (- ?x3165 (* (div (- ?x3165 1) 12) 12))))
 (let ((?x3741 (ite (or (= ?x1128 4) (= ?x1128 6) (= ?x1128 9) (= ?x1128 11)) 30 31)))
 (let (($x3566 (and (= (mod (div (- ?x3165 1) 12) 4) 0) (and (distinct (mod (div (- ?x3165 1) 12) 100) 0) true))))
 (let ((?x4497 (ite (or $x3566 (= (mod (div (- ?x3165 1) 12) 400) 0)) 29 28)))
 (< x_beta (ite (= ?x1128 2) ?x4497 ?x3741))))))))
(assert
 (<= (- 1200) y_months))
(assert
 (>= 1199 y_months))
(assert
 (>= y_beta 0))
(assert
 (let ((?x3844 (+ y_months 24003)))
 (let ((?x1829 (- ?x3844 (* (div (- ?x3844 1) 12) 12))))
 (let ((?x1726 (ite (or (= ?x1829 4) (= ?x1829 6) (= ?x1829 9) (= ?x1829 11)) 30 31)))
 (let (($x3823 (and (= (mod (div (- ?x3844 1) 12) 4) 0) (and (distinct (mod (div (- ?x3844 1) 12) 100) 0) true))))
 (let ((?x3564 (ite (or $x3823 (= (mod (div (- ?x3844 1) 12) 400) 0)) 29 28)))
 (< y_beta (ite (= ?x1829 2) ?x3564 ?x1726))))))))
(assert
 (and (= x_months (- (+ (* 2020 12) 1) 24003)) (= 30 x_beta)))
(assert
 (and (= y_months (- (+ (* 2019 12) 1) 24003)) (= 30 y_beta)))
(assert
 (let ((?x2469 (+ x_beta 1)))
 (let ((?x3440 (+ (+ x_months 1) 24003)))
 (let ((?x1499 (- ?x3440 (* (div (- ?x3440 1) 12) 12))))
 (let ((?x2698 (ite (or (= ?x1499 4) (= ?x1499 6) (= ?x1499 9) (= ?x1499 11)) 30 31)))
 (let (($x1834 (and (= (mod (div (- ?x3440 1) 12) 4) 0) (and (distinct (mod (div (- ?x3440 1) 12) 100) 0) true))))
 (let (($x4305 (or $x1834 (= (mod (div (- ?x3440 1) 12) 400) 0))))
 (let ((?x3098 (ite (= ?x1499 2) (ite $x4305 29 28) ?x2698)))
 (let ((?x694 (ite (> 1 ?x2469) 1 (ite (> ?x2469 ?x3098) ?x3098 ?x2469))))
 (let ((?x1245 (ite (> 1 ?x694) 1 (ite (> ?x694 ?x3098) ?x3098 ?x694))))
 (let ((?x2699 (ite (= 2 ?x1499) (ite $x4305 31 31) (ite (= 1 ?x1499) (ite $x4305 0 0) 0))))
 (let ((?x4386 (ite (= 4 ?x1499) (ite $x4305 91 90) (ite (= 3 ?x1499) (ite $x4305 60 59) ?x2699))))
 (let ((?x2512 (ite (= 6 ?x1499) (ite $x4305 152 151) (ite (= 5 ?x1499) (ite $x4305 121 120) ?x4386))))
 (let ((?x1882 (ite (= 8 ?x1499) (ite $x4305 213 212) (ite (= 7 ?x1499) (ite $x4305 182 181) ?x2512))))
 (let ((?x2053 (ite (= 10 ?x1499) (ite $x4305 274 273) (ite (= 9 ?x1499) (ite $x4305 244 243) ?x1882))))
 (let ((?x4443 (ite (= 12 ?x1499) (ite $x4305 335 334) (ite (= 11 ?x1499) (ite $x4305 305 304) ?x2053))))
 (let ((?x2850 (+ (* 365 (- (div (- ?x3440 1) 12) 1)) (div (- (div (- ?x3440 1) 12) 1) 4))))
 (let ((?x2583 (+ (- ?x2850 (div (- (div (- ?x3440 1) 12) 1) 100)) (div (- (div (- ?x3440 1) 12) 1) 400))))
 (let ((?x4385 (+ (+ (- (+ (+ ?x2583 ?x4443) (- ?x1245 1)) 730179) 0) 730179)))
 (let ((?x1668 (mod ?x4385 146097)))
 (let ((?x1066 (div ?x1668 36524)))
 (let ((?x2074 (ite (<= 4 ?x1066) 3 ?x1066)))
 (let ((?x3520 (- ?x1668 (* ?x2074 36524))))
 (let ((?x725 (mod ?x3520 1461)))
 (let ((?x1785 (div ?x725 365)))
 (let ((?x2971 (ite (<= 4 ?x1785) 3 ?x1785)))
 (let ((?x1750 (+ (+ (* (div ?x4385 146097) 400) (* ?x2074 100)) (* (div ?x3520 1461) 4))))
 (let ((?x2224 (+ (+ ?x1750 ?x2971) 1)))
 (let (($x901 (or (and (= (mod ?x2224 4) 0) (and (distinct (mod ?x2224 100) 0) true)) (= (mod ?x2224 400) 0))))
 (let ((?x1203 (- ?x725 (* ?x2971 365))))
 (let ((?x1708 (ite $x901 31 31)))
 (let (($x1470 (>= ?x1203 ?x1708)))
 (let ((?x4406 (ite $x1470 (+ (- ?x1203 ?x1708) 1) (+ (- ?x1203 (ite $x901 0 0)) 1))))
 (let ((?x1796 (ite $x901 60 59)))
 (let (($x4372 (>= ?x1203 ?x1796)))
 (let ((?x4054 (ite $x901 91 90)))
 (let (($x1070 (>= ?x1203 ?x4054)))
 (let ((?x1632 (ite $x1070 (+ (- ?x1203 ?x4054) 1) (ite $x4372 (+ (- ?x1203 ?x1796) 1) ?x4406))))
 (let ((?x2925 (ite $x901 121 120)))
 (let (($x2378 (>= ?x1203 ?x2925)))
 (let ((?x2054 (ite $x901 152 151)))
 (let (($x3472 (>= ?x1203 ?x2054)))
 (let ((?x2343 (ite $x3472 (+ (- ?x1203 ?x2054) 1) (ite $x2378 (+ (- ?x1203 ?x2925) 1) ?x1632))))
 (let ((?x1211 (ite $x901 182 181)))
 (let (($x1298 (>= ?x1203 ?x1211)))
 (let ((?x2721 (ite $x901 213 212)))
 (let (($x4416 (>= ?x1203 ?x2721)))
 (let ((?x3202 (ite $x4416 (+ (- ?x1203 ?x2721) 1) (ite $x1298 (+ (- ?x1203 ?x1211) 1) ?x2343))))
 (let ((?x4226 (ite $x901 244 243)))
 (let (($x3162 (>= ?x1203 ?x4226)))
 (let ((?x3951 (ite $x901 274 273)))
 (let (($x1792 (>= ?x1203 ?x3951)))
 (let ((?x513 (ite $x1792 (+ (- ?x1203 ?x3951) 1) (ite $x3162 (+ (- ?x1203 ?x4226) 1) ?x3202))))
 (let ((?x4651 (ite $x901 305 304)))
 (let (($x4538 (>= ?x1203 ?x4651)))
 (let ((?x2685 (ite $x901 335 334)))
 (let (($x4417 (>= ?x1203 ?x2685)))
 (let ((?x3180 (ite $x4417 (+ (- ?x1203 ?x2685) 1) (ite $x4538 (+ (- ?x1203 ?x4651) 1) ?x513))))
 (let (($x964 (= 0 0)))
 (let ((?x4578 (ite $x2378 5 (ite $x1070 4 (ite $x4372 3 (ite $x1470 2 1))))))
 (let ((?x3058 (ite $x3162 9 (ite $x4416 8 (ite $x1298 7 (ite $x3472 6 ?x4578))))))
 (let ((?x1484 (+ (* (ite $x964 (div (- ?x3440 1) 12) ?x2224) 12) (ite $x964 ?x1499 (ite $x4417 12 (ite $x4538 11 (ite $x1792 10 ?x3058)))))))
 (and (= (- ?x1484 24003) (- (+ (* 2020 12) 2) 24003)) (= 28 (- (ite $x964 ?x1245 ?x3180) 1)))))))))))))))))))))))))))))))))))))))))))))))))))))))))))))))))
(assert
 (let ((?x4173 (+ y_beta 1)))
(let ((?x3047 (+ (+ y_months 1) 24003)))
(let ((?x1689 (- ?x3047 (* (div (- ?x3047 1) 12) 12))))
(let ((?x2878 (ite (or (= ?x1689 4) (= ?x1689 6) (= ?x1689 9) (= ?x1689 11)) 30 31)))
(let (($x3008 (and (= (mod (div (- ?x3047 1) 12) 4) 0) (and (distinct (mod (div (- ?x3047 1) 12) 100) 0) true))))
(let (($x579 (or $x3008 (= (mod (div (- ?x3047 1) 12) 400) 0))))
(let ((?x4577 (ite (= ?x1689 2) (ite $x579 29 28) ?x2878)))
(let ((?x3599 (ite (> 1 ?x4173) 1 (ite (> ?x4173 ?x4577) ?x4577 ?x4173))))
(let ((?x3541 (ite (> 1 ?x3599) 1 (ite (> ?x3599 ?x4577) ?x4577 ?x3599))))
(let ((?x1296 (ite (= 2 ?x1689) (ite $x579 31 31) (ite (= 1 ?x1689) (ite $x579 0 0) 0))))
(let ((?x2776 (ite (= 4 ?x1689) (ite $x579 91 90) (ite (= 3 ?x1689) (ite $x579 60 59) ?x1296))))
(let ((?x412 (ite (= 6 ?x1689) (ite $x579 152 151) (ite (= 5 ?x1689) (ite $x579 121 120) ?x2776))))
(let ((?x3592 (ite (= 8 ?x1689) (ite $x579 213 212) (ite (= 7 ?x1689) (ite $x579 182 181) ?x412))))
(let ((?x1506 (ite (= 10 ?x1689) (ite $x579 274 273) (ite (= 9 ?x1689) (ite $x579 244 243) ?x3592))))
(let ((?x3233 (ite (= 12 ?x1689) (ite $x579 335 334) (ite (= 11 ?x1689) (ite $x579 305 304) ?x1506))))
(let ((?x2900 (+ (* 365 (- (div (- ?x3047 1) 12) 1)) (div (- (div (- ?x3047 1) 12) 1) 4))))
(let ((?x818 (+ (- ?x2900 (div (- (div (- ?x3047 1) 12) 1) 100)) (div (- (div (- ?x3047 1) 12) 1) 400))))
(let ((?x4024 (+ (+ (- (+ (+ ?x818 ?x3233) (- ?x3541 1)) 730179) 0) 730179)))
(let ((?x2166 (mod ?x4024 146097)))
(let ((?x3713 (div ?x2166 36524)))
(let ((?x3996 (ite (<= 4 ?x3713) 3 ?x3713)))
(let ((?x4450 (- ?x2166 (* ?x3996 36524))))
(let ((?x2363 (mod ?x4450 1461)))
(let ((?x4584 (div ?x2363 365)))
(let ((?x4540 (ite (<= 4 ?x4584) 3 ?x4584)))
(let ((?x3706 (+ (+ (* (div ?x4024 146097) 400) (* ?x3996 100)) (* (div ?x4450 1461) 4))))
(let ((?x2724 (+ (+ ?x3706 ?x4540) 1)))
(let (($x1756 (or (and (= (mod ?x2724 4) 0) (and (distinct (mod ?x2724 100) 0) true)) (= (mod ?x2724 400) 0))))
(let ((?x3804 (- ?x2363 (* ?x4540 365))))
(let ((?x1947 (ite $x1756 31 31)))
(let (($x4613 (>= ?x3804 ?x1947)))
(let ((?x4290 (ite $x4613 (+ (- ?x3804 ?x1947) 1) (+ (- ?x3804 (ite $x1756 0 0)) 1))))
(let ((?x510 (ite $x1756 60 59)))
(let (($x4558 (>= ?x3804 ?x510)))
(let ((?x3984 (ite $x1756 91 90)))
(let (($x939 (>= ?x3804 ?x3984)))
(let ((?x1800 (ite $x939 (+ (- ?x3804 ?x3984) 1) (ite $x4558 (+ (- ?x3804 ?x510) 1) ?x4290))))
(let ((?x2008 (ite $x1756 121 120)))
(let (($x1948 (>= ?x3804 ?x2008)))
(let ((?x2362 (ite $x1756 152 151)))
(let (($x2898 (>= ?x3804 ?x2362)))
(let ((?x2712 (ite $x2898 (+ (- ?x3804 ?x2362) 1) (ite $x1948 (+ (- ?x3804 ?x2008) 1) ?x1800))))
(let ((?x3601 (ite $x1756 182 181)))
(let (($x2674 (>= ?x3804 ?x3601)))
(let ((?x3751 (ite $x1756 213 212)))
(let (($x2412 (>= ?x3804 ?x3751)))
(let ((?x1638 (ite $x2412 (+ (- ?x3804 ?x3751) 1) (ite $x2674 (+ (- ?x3804 ?x3601) 1) ?x2712))))
(let ((?x4182 (ite $x1756 244 243)))
(let (($x3159 (>= ?x3804 ?x4182)))
(let ((?x3638 (ite $x1756 274 273)))
(let (($x4225 (>= ?x3804 ?x3638)))
(let ((?x3322 (ite $x4225 (+ (- ?x3804 ?x3638) 1) (ite $x3159 (+ (- ?x3804 ?x4182) 1) ?x1638))))
(let ((?x3199 (ite $x1756 305 304)))
(let (($x4316 (>= ?x3804 ?x3199)))
(let ((?x3877 (ite $x1756 335 334)))
(let (($x2807 (>= ?x3804 ?x3877)))
(let ((?x3655 (ite $x2807 (+ (- ?x3804 ?x3877) 1) (ite $x4316 (+ (- ?x3804 ?x3199) 1) ?x3322))))
(let (($x964 (= 0 0)))
(let ((?x4062 (ite $x1948 5 (ite $x939 4 (ite $x4558 3 (ite $x4613 2 1))))))
(let ((?x4210 (ite $x3159 9 (ite $x2412 8 (ite $x2674 7 (ite $x2898 6 ?x4062))))))
(let ((?x1486 (+ (* (ite $x964 (div (- ?x3047 1) 12) ?x2724) 12) (ite $x964 ?x1689 (ite $x2807 12 (ite $x4316 11 (ite $x4225 10 ?x4210)))))))
(and (= (- ?x1486 24003) (- (+ (* 2019 12) 2) 24003)) (= 27 (- (ite $x964 ?x3541 ?x3655) 1)))))))))))))))))))))))))))))))))))))))))))))))))))))))))))))))))
(check-sat)
